src/data/integer_planner_2D_obstacle_inflation.dat
# Data file generated for integer_planner_2D_obstacle_inflation
param epsilon :=    0.001000000000000;
param n_vel_cst := 6;
param n_acc_cst := 6;
param cos_vel :=    1    0.500000000000000,   2   -0.500000000000000,   3   -1.000000000000000,   4   -0.500000000000000,   5    0.500000000000000,   6    1.000000000000000;
param sin_vel :=    1    0.866025403784439,   2    0.866025403784439,   3    0.000000000000000,   4   -0.866025403784438,   5   -0.866025403784439,   6   -0.000000000000000;
param cos_acc :=    1    0.500000000000000,   2   -0.500000000000000,   3   -1.000000000000000,   4   -0.500000000000000,   5    0.500000000000000,   6    1.000000000000000;
param sin_acc :=    1    0.866025403784439,   2    0.866025403784439,   3    0.000000000000000,   4   -0.866025403784438,   5   -0.866025403784439,   6   -0.000000000000000;
param cos_vmax :=    0.866025403784439;
param cos_amax :=    0.866025403784439;
param obs_centroid :                    1                   2	:=
	   1    4.00000000000000    5.00000000000000
	   2    2.00000000000000    4.00000000000000	;
param obs_radius :=    1    2.000000000000000,   2    1.000000000000000;
param n_obs := 2;
param n_obs_cst := 8;
param cos_obs :=    1    0.707106781186548,   2    0.000000000000000,   3   -0.707106781186547,   4   -1.000000000000000,   5   -0.707106781186548,   6   -0.000000000000000,   7    0.707106781186547,   8    1.000000000000000;
param sin_obs :=    1    0.707106781186547,   2    1.000000000000000,   3    0.707106781186548,   4    0.000000000000000,   5   -0.707106781186547,   6   -1.000000000000000,   7   -0.707106781186548,   8   -0.000000000000000;
param obs_inflation :=    1    1.300000000000000,   2    1.100000000000000;
param acc_max :=    1.000000000000000;
param vel_max :=    2.000000000000000;
param vel_min :=    1.000000000000000;
param n_ts := 4;
param timeStamp :=    1    0.000000000000000,   2    6.250000000000000,   3   12.500000000000000,   4   25.000000000000000;
param pos_init :=    1    0.000000000000000,   2    0.000000000000000;
param vel_init :=    1    0.000000000000000,   2    1.000000000000000;
param pos_final :=    1    8.000000000000000,   2    8.000000000000000,   3    9.000000000000000,   4    9.000000000000000;
param vel_final :=    1    0.000000000000000,   2    0.000000000000000;
param pos_cst :=    1   -2.000000000000000,   2   10.000000000000000,   3   -2.000000000000000,   4   10.000000000000000;
