src/output/integer_planner_2D_obstacle_inflation.txt
Problem:    integer_planner_2D_obstacle_inflation
Rows:       175
Columns:    89 (64 integer, 64 binary)
Non-zeros:  413
Status:     INTEGER OPTIMAL
Objective:  control_input = 0.1370128266 (MINimum)

   No.   Row name        Activity     Lower bound   Upper bound
------ ------------    ------------- ------------- -------------
     1 control_input
                            0.137013                             
     2 initpos[1]                  0            -0             = 
     3 initpos[2]                  0            -0             = 
     4 initvel[1]                  0            -0             = 
     5 initvel[2]                  1             1             = 
     6 kinematics[1,1]
                                   0            -0             = 
     7 kinematics[1,2]
                                   0            -0             = 
     8 kinematics[1,3]
                                   0            -0             = 
     9 kinematics[2,1]
                                   0            -0             = 
    10 kinematics[2,2]
                                   0            -0             = 
    11 kinematics[2,3]
                                   0            -0             = 
    12 dynamics[1,1]
                                   0            -0             = 
    13 dynamics[1,2]
                                   0            -0             = 
    14 dynamics[1,3]
                                   0            -0             = 
    15 dynamics[2,1]
                                   0            -0             = 
    16 dynamics[2,2]
                                   0            -0             = 
    17 dynamics[2,3]
                                   0            -0             = 
    18 velocity_cst[1,1]
                                 0.5                     1.73205 
    19 velocity_cst[1,2]
                                -0.5                     1.73205 
    20 velocity_cst[1,3]
                                  -1                     1.73205 
    21 velocity_cst[1,4]
                                -0.5                     1.73205 
    22 velocity_cst[1,5]
                                 0.5                     1.73205 
    23 velocity_cst[1,6]
                                   1                     1.73205 
    24 velocity_cst[2,1]
                            0.451004                     1.73205 
    25 velocity_cst[2,2]
                           -0.129822                     1.73205 
    26 velocity_cst[2,3]
                           -0.580825                     1.73205 
    27 velocity_cst[2,4]
                           -0.451004                     1.73205 
    28 velocity_cst[2,5]
                            0.129822                     1.73205 
    29 velocity_cst[2,6]
                            0.580825                     1.73205 
    30 velocity_cst[3,1]
                            0.451004                     1.73205 
    31 velocity_cst[3,2]
                            0.307334                     1.73205 
    32 velocity_cst[3,3]
                            -0.14367                     1.73205 
    33 velocity_cst[3,4]
                           -0.451004                     1.73205 
    34 velocity_cst[3,5]
                           -0.307334                     1.73205 
    35 velocity_cst[3,6]
                             0.14367                     1.73205 
    36 accelerate_cst[1,1]
                         -0.00783943                    0.866025 
    37 accelerate_cst[1,2]
                           0.0592285                    0.866025 
    38 accelerate_cst[1,3]
                           0.0670679                    0.866025 
    39 accelerate_cst[1,4]
                          0.00783943                    0.866025 
    40 accelerate_cst[1,5]
                          -0.0592285                    0.866025 
    41 accelerate_cst[1,6]
                          -0.0670679                    0.866025 
    42 accelerate_cst[2,1]
                                   0                    0.866025 
    43 accelerate_cst[2,2]
                           0.0699449                    0.866025 
    44 accelerate_cst[2,3]
                           0.0699449                    0.866025 
    45 accelerate_cst[2,4]
                                   0                    0.866025 
    46 accelerate_cst[2,5]
                          -0.0699449                    0.866025 
    47 accelerate_cst[2,6]
                          -0.0699449                    0.866025 
    48 accelerate_cst[3,1]
                                   0                    0.866025 
    49 accelerate_cst[3,2]
                                   0                    0.866025 
    50 accelerate_cst[3,3]
                                   0                    0.866025 
    51 accelerate_cst[3,4]
                                   0                    0.866025 
    52 accelerate_cst[3,5]
                                   0                    0.866025 
    53 accelerate_cst[3,6]
                                   0                    0.866025 
    54 accelerate_cst_am[1,1]
                          -0.0749074                          -0 
    55 accelerate_cst_am[1,2]
                         -0.00783943                          -0 
    56 accelerate_cst_am[1,3]
                                   0                          -0 
    57 accelerate_cst_am[1,4]
                          -0.0592285                          -0 
    58 accelerate_cst_am[1,5]
                           -0.126296                          -0 
    59 accelerate_cst_am[1,6]
                           -0.134136                          -0 
    60 accelerate_cst_am[2,1]
                          -0.0699449                          -0 
    61 accelerate_cst_am[2,2]
                                   0                          -0 
    62 accelerate_cst_am[2,3]
                                   0                          -0 
    63 accelerate_cst_am[2,4]
                          -0.0699449                          -0 
    64 accelerate_cst_am[2,5]
                            -0.13989                          -0 
    65 accelerate_cst_am[2,6]
                            -0.13989                          -0 
    66 accelerate_cst_am[3,1]
                                   0                          -0 
    67 accelerate_cst_am[3,2]
                                   0                          -0 
    68 accelerate_cst_am[3,3]
                                   0                          -0 
    69 accelerate_cst_am[3,4]
                                   0                          -0 
    70 accelerate_cst_am[3,5]
                                   0                          -0 
    71 accelerate_cst_am[3,6]
                                   0                          -0 
    72 position_cst_min[1,1]
                                   0            -2               
    73 position_cst_min[1,2]
                            0.579482            -2               
    74 position_cst_min[1,3]
                             2.52717            -2               
    75 position_cst_min[1,4]
                                   8            -2               
    76 position_cst_min[2,1]
                                   0            -2               
    77 position_cst_min[2,2]
                             4.94008            -2               
    78 position_cst_min[2,3]
                             7.20413            -2               
    79 position_cst_min[2,4]
                                   9            -2               
    80 position_cst_max[1,1]
                                   0                          10 
    81 position_cst_max[1,2]
                            0.579482                          10 
    82 position_cst_max[1,3]
                             2.52717                          10 
    83 position_cst_max[1,4]
                                   8                          10 
    84 position_cst_max[2,1]
                                   0                          10 
    85 position_cst_max[2,2]
                             4.94008                          10 
    86 position_cst_max[2,3]
                             7.20413                          10 
    87 position_cst_max[2,4]
                                   9                          10 
    88 arrival_lo[1,1]
                                   8             8               
    89 arrival_lo[1,2]
                                   9             9               
    90 arrival_lo[2,1]
                                   8             8               
    91 arrival_lo[2,2]
                                   9             9               
    92 arrival_lo[3,1]
                                   8             8               
    93 arrival_lo[3,2]
                                   9             9               
    94 arrival_lo[4,1]
                                   8             8               
    95 arrival_lo[4,2]
                                   9             9               
    96 arrival_hi[1,1]
                                   8                           8 
    97 arrival_hi[1,2]
                                   9                           9 
    98 arrival_hi[2,1]
                                   8                           8 
    99 arrival_hi[2,2]
                                   9                           9 
   100 arrival_hi[3,1]
                                   8                           8 
   101 arrival_hi[3,2]
                                   9                           9 
   102 arrival_hi[4,1]
                                   8                           8 
   103 arrival_hi[4,2]
                                   9                           9 
   104 obstacle_cst[1,1,1]
                                1000       8.96396               
   105 obstacle_cst[1,1,2]
                                1000           6.6               
   106 obstacle_cst[1,1,3]
                                1000       1.89289               
   107 obstacle_cst[1,1,4]
                                   0          -2.4               
   108 obstacle_cst[1,1,5]
                                   0      -3.76396               
   109 obstacle_cst[1,1,6]
                                   0          -1.4               
   110 obstacle_cst[1,1,7]
                                1000       3.30711               
   111 obstacle_cst[1,1,8]
                                1000           7.6               
   112 obstacle_cst[1,2,1]
                                1000       5.34264               
   113 obstacle_cst[1,2,2]
                                1000           3.1               
   114 obstacle_cst[1,2,3]
                                   0     -0.314214               
   115 obstacle_cst[1,2,4]
                                   0          -2.9               
   116 obstacle_cst[1,2,5]
                                   0      -3.14264               
   117 obstacle_cst[1,2,6]
                                   0          -0.9               
   118 obstacle_cst[1,2,7]
                                1000       2.51421               
   119 obstacle_cst[1,2,8]
                                1000           5.1               
   120 obstacle_cst[2,1,1]
                              1003.9       8.96396               
   121 obstacle_cst[2,1,2]
                             1000.58           6.6               
   122 obstacle_cst[2,1,3]
                             996.917       1.89289               
   123 obstacle_cst[2,1,4]
                              995.06          -2.4               
   124 obstacle_cst[2,1,5]
                             996.097      -3.76396               
   125 obstacle_cst[2,1,6]
                           -0.579482          -1.4               
   126 obstacle_cst[2,1,7]
                             1003.08       3.30711               
   127 obstacle_cst[2,1,8]
                             1004.94           7.6               
   128 obstacle_cst[2,2,1]
                              1003.9       5.34264               
   129 obstacle_cst[2,2,2]
                             1000.58           3.1               
   130 obstacle_cst[2,2,3]
                             996.917     -0.314214               
   131 obstacle_cst[2,2,4]
                              995.06          -2.9               
   132 obstacle_cst[2,2,5]
                             996.097      -3.14264               
   133 obstacle_cst[2,2,6]
                           -0.579482          -0.9               
   134 obstacle_cst[2,2,7]
                             3.08341       2.51421               
   135 obstacle_cst[2,2,8]
                             1004.94           5.1               
   136 obstacle_cst[3,1,1]
                             1006.88       8.96396               
   137 obstacle_cst[3,1,2]
                             1002.53           6.6               
   138 obstacle_cst[3,1,3]
                             996.693       1.89289               
   139 obstacle_cst[3,1,4]
                             992.796          -2.4               
   140 obstacle_cst[3,1,5]
                             993.119      -3.76396               
   141 obstacle_cst[3,1,6]
                             997.473          -1.4               
   142 obstacle_cst[3,1,7]
                             3.30711       3.30711               
   143 obstacle_cst[3,1,8]
                              1007.2           7.6               
   144 obstacle_cst[3,2,1]
                             6.88107       5.34264               
   145 obstacle_cst[3,2,2]
                             1002.53           3.1               
   146 obstacle_cst[3,2,3]
                             996.693     -0.314214               
   147 obstacle_cst[3,2,4]
                             992.796          -2.9               
   148 obstacle_cst[3,2,5]
                             993.119      -3.14264               
   149 obstacle_cst[3,2,6]
                             997.473          -0.9               
   150 obstacle_cst[3,2,7]
                             3.30711       2.51421               
   151 obstacle_cst[3,2,8]
                             7.20413           5.1               
   152 obstacle_cst[4,1,1]
                             12.0208       8.96396               
   153 obstacle_cst[4,1,2]
                                   8           6.6               
   154 obstacle_cst[4,1,3]
                             999.293       1.89289               
   155 obstacle_cst[4,1,4]
                                 991          -2.4               
   156 obstacle_cst[4,1,5]
                             987.979      -3.76396               
   157 obstacle_cst[4,1,6]
                                 992          -1.4               
   158 obstacle_cst[4,1,7]
                             1000.71       3.30711               
   159 obstacle_cst[4,1,8]
                                   9           7.6               
   160 obstacle_cst[4,2,1]
                             12.0208       5.34264               
   161 obstacle_cst[4,2,2]
                                   8           3.1               
   162 obstacle_cst[4,2,3]
                             999.293     -0.314214               
   163 obstacle_cst[4,2,4]
                                 991          -2.9               
   164 obstacle_cst[4,2,5]
                             987.979      -3.14264               
   165 obstacle_cst[4,2,6]
                                 992          -0.9               
   166 obstacle_cst[4,2,7]
                             1000.71       2.51421               
   167 obstacle_cst[4,2,8]
                                   9           5.1               
   168 obstacle_avoidance_logic[1,1]
                                   5                           7 
   169 obstacle_avoidance_logic[1,2]
                                   4                           7 
   170 obstacle_avoidance_logic[2,1]
                                   7                           7 
   171 obstacle_avoidance_logic[2,2]
                                   6                           7 
   172 obstacle_avoidance_logic[3,1]
                                   7                           7 
   173 obstacle_avoidance_logic[3,2]
                                   5                           7 
   174 obstacle_avoidance_logic[4,1]
                                   5                           7 
   175 obstacle_avoidance_logic[4,2]
                                   5                           7 

   No. Column name       Activity     Lower bound   Upper bound
------ ------------    ------------- ------------- -------------
     1 pos[1,1]                    0                             
     2 pos[2,1]                    0                             
     3 pos[1,2]             0.579482                             
     4 pos[1,3]              2.52717                             
     5 pos[1,4]                    8                             
     6 pos[2,2]              4.94008                             
     7 pos[2,3]              7.20413                             
     8 pos[2,4]                    9                             
     9 vel[1,1]                    0                             
    10 vel[2,1]                    1                             
    11 vel[1,2]             0.185434                             
    12 vel[1,3]             0.437826                             
    13 vel[1,4]             0.437826                             
    14 vel[2,2]             0.580825                             
    15 vel[2,3]              0.14367                             
    16 vel[2,4]              0.14367                             
    17 acc[1,1]            0.0296695                             
    18 acc[1,2]            0.0403827                             
    19 acc[1,3]                    0                             
    20 acc[2,1]           -0.0670679                             
    21 acc[2,2]           -0.0699449                             
    22 acc[2,3]                    0                             
    23 am[1]               0.0670679                             
    24 am[2]               0.0699449                             
    25 am[3]                       0                             
    26 obs_avoid[1,1,1]
                    *              1             0             1 
    27 obs_avoid[1,1,2]
                    *              1             0             1 
    28 obs_avoid[1,1,3]
                    *              1             0             1 
    29 obs_avoid[1,1,4]
                    *              0             0             1 
    30 obs_avoid[1,1,5]
                    *              0             0             1 
    31 obs_avoid[1,1,6]
                    *              0             0             1 
    32 obs_avoid[1,1,7]
                    *              1             0             1 
    33 obs_avoid[1,1,8]
                    *              1             0             1 
    34 obs_avoid[1,2,1]
                    *              1             0             1 
    35 obs_avoid[1,2,2]
                    *              1             0             1 
    36 obs_avoid[1,2,3]
                    *              0             0             1 
    37 obs_avoid[1,2,4]
                    *              0             0             1 
    38 obs_avoid[1,2,5]
                    *              0             0             1 
    39 obs_avoid[1,2,6]
                    *              0             0             1 
    40 obs_avoid[1,2,7]
                    *              1             0             1 
    41 obs_avoid[1,2,8]
                    *              1             0             1 
    42 obs_avoid[2,1,1]
                    *              1             0             1 
    43 obs_avoid[2,1,2]
                    *              1             0             1 
    44 obs_avoid[2,1,3]
                    *              1             0             1 
    45 obs_avoid[2,1,4]
                    *              1             0             1 
    46 obs_avoid[2,1,5]
                    *              1             0             1 
    47 obs_avoid[2,1,6]
                    *              0             0             1 
    48 obs_avoid[2,1,7]
                    *              1             0             1 
    49 obs_avoid[2,1,8]
                    *              1             0             1 
    50 obs_avoid[2,2,1]
                    *              1             0             1 
    51 obs_avoid[2,2,2]
                    *              1             0             1 
    52 obs_avoid[2,2,3]
                    *              1             0             1 
    53 obs_avoid[2,2,4]
                    *              1             0             1 
    54 obs_avoid[2,2,5]
                    *              1             0             1 
    55 obs_avoid[2,2,6]
                    *              0             0             1 
    56 obs_avoid[2,2,7]
                    *              0             0             1 
    57 obs_avoid[2,2,8]
                    *              1             0             1 
    58 obs_avoid[3,1,1]
                    *              1             0             1 
    59 obs_avoid[3,1,2]
                    *              1             0             1 
    60 obs_avoid[3,1,3]
                    *              1             0             1 
    61 obs_avoid[3,1,4]
                    *              1             0             1 
    62 obs_avoid[3,1,5]
                    *              1             0             1 
    63 obs_avoid[3,1,6]
                    *              1             0             1 
    64 obs_avoid[3,1,7]
                    *              0             0             1 
    65 obs_avoid[3,1,8]
                    *              1             0             1 
    66 obs_avoid[3,2,1]
                    *              0             0             1 
    67 obs_avoid[3,2,2]
                    *              1             0             1 
    68 obs_avoid[3,2,3]
                    *              1             0             1 
    69 obs_avoid[3,2,4]
                    *              1             0             1 
    70 obs_avoid[3,2,5]
                    *              1             0             1 
    71 obs_avoid[3,2,6]
                    *              1             0             1 
    72 obs_avoid[3,2,7]
                    *              0             0             1 
    73 obs_avoid[3,2,8]
                    *              0             0             1 
    74 obs_avoid[4,1,1]
                    *              0             0             1 
    75 obs_avoid[4,1,2]
                    *              0             0             1 
    76 obs_avoid[4,1,3]
                    *              1             0             1 
    77 obs_avoid[4,1,4]
                    *              1             0             1 
    78 obs_avoid[4,1,5]
                    *              1             0             1 
    79 obs_avoid[4,1,6]
                    *              1             0             1 
    80 obs_avoid[4,1,7]
                    *              1             0             1 
    81 obs_avoid[4,1,8]
                    *              0             0             1 
    82 obs_avoid[4,2,1]
                    *              0             0             1 
    83 obs_avoid[4,2,2]
                    *              0             0             1 
    84 obs_avoid[4,2,3]
                    *              1             0             1 
    85 obs_avoid[4,2,4]
                    *              1             0             1 
    86 obs_avoid[4,2,5]
                    *              1             0             1 
    87 obs_avoid[4,2,6]
                    *              1             0             1 
    88 obs_avoid[4,2,7]
                    *              1             0             1 
    89 obs_avoid[4,2,8]
                    *              0             0             1 

Integer feasibility conditions:

KKT.PE: max.abs.err = 1.14e-13 on row 138
        max.rel.err = 5.68e-17 on row 156
        High quality

KKT.PB: max.abs.err = 1.78e-15 on row 14
        max.rel.err = 1.78e-15 on row 14
        High quality

End of output
